WARNING: for repeatability, setting FPU to use double precision
============================[ Problem Statistics ]=============================
|                                                                             |
|  Number of variables:            50                                         |
|  Number of clauses:             218                                         |
|  Parse time:                   0.00 s                                       |
|                                                                             |
============================[ Search Statistics ]==============================
| Conflicts |          ORIGINAL         |          LEARNT          | Progress |
|           |    Vars  Clauses Literals |    Limit  Clauses Lit/Cl |          |
===============================================================================
===============================================================================
restarts              : 1
conflicts             : 89             (57531 /sec)
decisions             : 93             (0.00 % random) (60116 /sec)
propagations          : 1195           (772463 /sec)
conflict literals     : 332            (18.83 % deleted)
Memory used           : 20.00 MB
CPU time              : 0.001547 s

UNSATISFIABLE
